100
102
38 3
22 1
40 3
41 3
24 1
35 2
48 3
18 0
34 2
37 3
26 1
37 3
37 1
26 1
37 2
37 2
27 1
36 2
40 2
19 1
41 2
42 2
19 1
39 2
35 3
23 1
42 2
42 2
21 2
37 3
43 3
19 1
38 2
38 2
23 2
39 3
36 2
22 1
42 2
43 3
22 2
35 1
47 2
18 1
35 2
47 4
22 1
31 2
34 2
21 1
45 4
46 3
20 1
34 2
46 2
21 1
33 2
41 2
21 1
38 2
43 3
23 2
34 1
37 3
30 1
33 2
39 2
23 1
38 2
38 3
23 2
39 3
46 4
19 1
35 3
42 3
22 2
36 3
33 1
31 2
36 2
46 2
26 2
28 2
44 3
25 2
31 2
45 2
22 1
33 1
37 1
26 1
37 2
40 2
25 1
35 3
39 3
27 2
34 1
37 3
26 2
37 2
